Running for instance ./models/r102.txt
Generating routes...
Atingindo numero maximo de execucoes. abrindo alpha
Maximo de execucoes sem resultados atingido. 5870 rotas geradas
Execution time:  236.417912  seconds
Academic license - for non-commercial use only
Warning: constraint name "Cliente esta na rota x1" has a space
Optimize a model with 26 rows, 5870 columns and 31560 nonzeros
Variable types: 0 continuous, 5870 integer (0 binary)
Coefficient statistics:
  Matrix range     [1e+00, 1e+00]
  Objective range  [2e+01, 2e+02]
  Bounds range     [1e+00, 1e+00]
  RHS range        [1e+00, 2e+01]
Found heuristic solution: objective 950.4352012
Presolve removed 1 rows and 3256 columns
Presolve time: 0.03s
Presolved: 25 rows, 2614 columns, 11125 nonzeros
Found heuristic solution: objective 937.9476247
Variable types: 0 continuous, 2614 integer (2614 binary)

Root relaxation: objective 6.544397e+02, 69 iterations, 0.00 seconds

    Nodes    |    Current Node    |     Objective Bounds      |     Work
 Expl Unexpl |  Obj  Depth IntInf | Incumbent    BestBd   Gap | It/Node Time

*    0     0               0     654.4396992  654.43970  0.00%     -    0s

Explored 0 nodes (69 simplex iterations) in 0.04 seconds
Thread count was 8 (of 8 available processors)

Solution count 2: 654.44 937.948 

Optimal solution found (tolerance 1.00e-04)
Best objective 6.544396991837e+02, best bound 6.544396991837e+02, gap 0.0000%

Routes:
8
18
11 10
23 24
16 17 5
14 6 13
2 15 22 21 4 25
19 7
12 3 9 20 1

Distance: 654.439699184
Execution time:  236.884116  seconds
